p cnf 225 2277
1 2 3 4 5 0
6 7 8 9 10 0
11 12 13 14 15 0
16 17 18 19 20 0
21 22 23 24 25 0
26 27 28 29 30 0
31 32 33 34 35 0
36 37 38 39 40 0
41 42 43 44 45 0
46 47 48 49 50 0
51 52 53 54 55 0
56 57 58 59 60 0
61 62 63 64 65 0
66 67 68 69 70 0
71 72 73 74 75 0
76 77 78 79 80 0
81 82 83 84 85 0
86 87 88 89 90 0
91 92 93 94 95 0
96 97 98 99 100 0
101 102 103 104 105 0
106 107 108 109 110 0
111 112 113 114 115 0
116 117 118 119 120 0
121 122 123 124 125 0
126 127 128 129 130 0
131 132 133 134 135 0
136 137 138 139 140 0
141 142 143 144 145 0
146 147 148 149 150 0
151 152 153 154 155 0
156 157 158 159 160 0
161 162 163 164 165 0
166 167 168 169 170 0
171 172 173 174 175 0
176 177 178 179 180 0
181 182 183 184 185 0
186 187 188 189 190 0
191 192 193 194 195 0
196 197 198 199 200 0
201 202 203 204 205 0
206 207 208 209 210 0
211 212 213 214 215 0
216 217 218 219 220 0
221 222 223 224 225 0
-1 -2 0
-1 -3 0
-1 -4 0
-1 -5 0
-2 -3 0
-2 -4 0
-2 -5 0
-3 -4 0
-3 -5 0
-4 -5 0
-6 -7 0
-6 -8 0
-6 -9 0
-6 -10 0
-7 -8 0
-7 -9 0
-7 -10 0
-8 -9 0
-8 -10 0
-9 -10 0
-11 -12 0
-11 -13 0
-11 -14 0
-11 -15 0
-12 -13 0
-12 -14 0
-12 -15 0
-13 -14 0
-13 -15 0
-14 -15 0
-16 -17 0
-16 -18 0
-16 -19 0
-16 -20 0
-17 -18 0
-17 -19 0
-17 -20 0
-18 -19 0
-18 -20 0
-19 -20 0
-21 -22 0
-21 -23 0
-21 -24 0
-21 -25 0
-22 -23 0
-22 -24 0
-22 -25 0
-23 -24 0
-23 -25 0
-24 -25 0
-26 -27 0
-26 -28 0
-26 -29 0
-26 -30 0
-27 -28 0
-27 -29 0
-27 -30 0
-28 -29 0
-28 -30 0
-29 -30 0
-31 -32 0
-31 -33 0
-31 -34 0
-31 -35 0
-32 -33 0
-32 -34 0
-32 -35 0
-33 -34 0
-33 -35 0
-34 -35 0
-36 -37 0
-36 -38 0
-36 -39 0
-36 -40 0
-37 -38 0
-37 -39 0
-37 -40 0
-38 -39 0
-38 -40 0
-39 -40 0
-41 -42 0
-41 -43 0
-41 -44 0
-41 -45 0
-42 -43 0
-42 -44 0
-42 -45 0
-43 -44 0
-43 -45 0
-44 -45 0
-46 -47 0
-46 -48 0
-46 -49 0
-46 -50 0
-47 -48 0
-47 -49 0
-47 -50 0
-48 -49 0
-48 -50 0
-49 -50 0
-51 -52 0
-51 -53 0
-51 -54 0
-51 -55 0
-52 -53 0
-52 -54 0
-52 -55 0
-53 -54 0
-53 -55 0
-54 -55 0
-56 -57 0
-56 -58 0
-56 -59 0
-56 -60 0
-57 -58 0
-57 -59 0
-57 -60 0
-58 -59 0
-58 -60 0
-59 -60 0
-61 -62 0
-61 -63 0
-61 -64 0
-61 -65 0
-62 -63 0
-62 -64 0
-62 -65 0
-63 -64 0
-63 -65 0
-64 -65 0
-66 -67 0
-66 -68 0
-66 -69 0
-66 -70 0
-67 -68 0
-67 -69 0
-67 -70 0
-68 -69 0
-68 -70 0
-69 -70 0
-71 -72 0
-71 -73 0
-71 -74 0
-71 -75 0
-72 -73 0
-72 -74 0
-72 -75 0
-73 -74 0
-73 -75 0
-74 -75 0
-76 -77 0
-76 -78 0
-76 -79 0
-76 -80 0
-77 -78 0
-77 -79 0
-77 -80 0
-78 -79 0
-78 -80 0
-79 -80 0
-81 -82 0
-81 -83 0
-81 -84 0
-81 -85 0
-82 -83 0
-82 -84 0
-82 -85 0
-83 -84 0
-83 -85 0
-84 -85 0
-86 -87 0
-86 -88 0
-86 -89 0
-86 -90 0
-87 -88 0
-87 -89 0
-87 -90 0
-88 -89 0
-88 -90 0
-89 -90 0
-91 -92 0
-91 -93 0
-91 -94 0
-91 -95 0
-92 -93 0
-92 -94 0
-92 -95 0
-93 -94 0
-93 -95 0
-94 -95 0
-96 -97 0
-96 -98 0
-96 -99 0
-96 -100 0
-97 -98 0
-97 -99 0
-97 -100 0
-98 -99 0
-98 -100 0
-99 -100 0
-101 -102 0
-101 -103 0
-101 -104 0
-101 -105 0
-102 -103 0
-102 -104 0
-102 -105 0
-103 -104 0
-103 -105 0
-104 -105 0
-106 -107 0
-106 -108 0
-106 -109 0
-106 -110 0
-107 -108 0
-107 -109 0
-107 -110 0
-108 -109 0
-108 -110 0
-109 -110 0
-111 -112 0
-111 -113 0
-111 -114 0
-111 -115 0
-112 -113 0
-112 -114 0
-112 -115 0
-113 -114 0
-113 -115 0
-114 -115 0
-116 -117 0
-116 -118 0
-116 -119 0
-116 -120 0
-117 -118 0
-117 -119 0
-117 -120 0
-118 -119 0
-118 -120 0
-119 -120 0
-121 -122 0
-121 -123 0
-121 -124 0
-121 -125 0
-122 -123 0
-122 -124 0
-122 -125 0
-123 -124 0
-123 -125 0
-124 -125 0
-126 -127 0
-126 -128 0
-126 -129 0
-126 -130 0
-127 -128 0
-127 -129 0
-127 -130 0
-128 -129 0
-128 -130 0
-129 -130 0
-131 -132 0
-131 -133 0
-131 -134 0
-131 -135 0
-132 -133 0
-132 -134 0
-132 -135 0
-133 -134 0
-133 -135 0
-134 -135 0
-136 -137 0
-136 -138 0
-136 -139 0
-136 -140 0
-137 -138 0
-137 -139 0
-137 -140 0
-138 -139 0
-138 -140 0
-139 -140 0
-141 -142 0
-141 -143 0
-141 -144 0
-141 -145 0
-142 -143 0
-142 -144 0
-142 -145 0
-143 -144 0
-143 -145 0
-144 -145 0
-146 -147 0
-146 -148 0
-146 -149 0
-146 -150 0
-147 -148 0
-147 -149 0
-147 -150 0
-148 -149 0
-148 -150 0
-149 -150 0
-151 -152 0
-151 -153 0
-151 -154 0
-151 -155 0
-152 -153 0
-152 -154 0
-152 -155 0
-153 -154 0
-153 -155 0
-154 -155 0
-156 -157 0
-156 -158 0
-156 -159 0
-156 -160 0
-157 -158 0
-157 -159 0
-157 -160 0
-158 -159 0
-158 -160 0
-159 -160 0
-161 -162 0
-161 -163 0
-161 -164 0
-161 -165 0
-162 -163 0
-162 -164 0
-162 -165 0
-163 -164 0
-163 -165 0
-164 -165 0
-166 -167 0
-166 -168 0
-166 -169 0
-166 -170 0
-167 -168 0
-167 -169 0
-167 -170 0
-168 -169 0
-168 -170 0
-169 -170 0
-171 -172 0
-171 -173 0
-171 -174 0
-171 -175 0
-172 -173 0
-172 -174 0
-172 -175 0
-173 -174 0
-173 -175 0
-174 -175 0
-176 -177 0
-176 -178 0
-176 -179 0
-176 -180 0
-177 -178 0
-177 -179 0
-177 -180 0
-178 -179 0
-178 -180 0
-179 -180 0
-181 -182 0
-181 -183 0
-181 -184 0
-181 -185 0
-182 -183 0
-182 -184 0
-182 -185 0
-183 -184 0
-183 -185 0
-184 -185 0
-186 -187 0
-186 -188 0
-186 -189 0
-186 -190 0
-187 -188 0
-187 -189 0
-187 -190 0
-188 -189 0
-188 -190 0
-189 -190 0
-191 -192 0
-191 -193 0
-191 -194 0
-191 -195 0
-192 -193 0
-192 -194 0
-192 -195 0
-193 -194 0
-193 -195 0
-194 -195 0
-196 -197 0
-196 -198 0
-196 -199 0
-196 -200 0
-197 -198 0
-197 -199 0
-197 -200 0
-198 -199 0
-198 -200 0
-199 -200 0
-201 -202 0
-201 -203 0
-201 -204 0
-201 -205 0
-202 -203 0
-202 -204 0
-202 -205 0
-203 -204 0
-203 -205 0
-204 -205 0
-206 -207 0
-206 -208 0
-206 -209 0
-206 -210 0
-207 -208 0
-207 -209 0
-207 -210 0
-208 -209 0
-208 -210 0
-209 -210 0
-211 -212 0
-211 -213 0
-211 -214 0
-211 -215 0
-212 -213 0
-212 -214 0
-212 -215 0
-213 -214 0
-213 -215 0
-214 -215 0
-216 -217 0
-216 -218 0
-216 -219 0
-216 -220 0
-217 -218 0
-217 -219 0
-217 -220 0
-218 -219 0
-218 -220 0
-219 -220 0
-221 -222 0
-221 -223 0
-221 -224 0
-221 -225 0
-222 -223 0
-222 -224 0
-222 -225 0
-223 -224 0
-223 -225 0
-224 -225 0
-1 -7 0
-3 -10 0
-2 -15 0
-4 -13 0
-4 -28 0
-4 -26 0
-1 -35 0
-4 -33 0
-1 -38 0
-2 -38 0
-2 -42 0
-4 -41 0
-5 -50 0
-3 -48 0
-5 -52 0
-4 -53 0
-1 -64 0
-3 -63 0
-1 -67 0
-2 -69 0
-2 -73 0
-2 -75 0
-2 -78 0
-3 -77 0
-1 -85 0
-4 -82 0
-1 -88 0
-2 -89 0
-4 -91 0
-3 -91 0
-1 -97 0
-4 -100 0
-5 -105 0
-2 -101 0
-4 -108 0
-3 -110 0
-3 -115 0
-5 -112 0
-1 -117 0
-2 -118 0
-5 -129 0
-3 -130 0
-1 -133 0
-4 -132 0
-4 -136 0
-2 -138 0
-1 -143 0
-3 -144 0
-5 -150 0
-2 -147 0
-3 -157 0
-2 -156 0
-5 -163 0
-1 -164 0
-5 -168 0
-5 -169 0
-2 -171 0
-2 -173 0
-1 -180 0
-4 -180 0
-4 -185 0
-4 -183 0
-3 -188 0
-5 -189 0
-4 -191 0
-2 -191 0
-5 -198 0
-3 -200 0
-2 -203 0
-3 -202 0
-4 -208 0
-1 -206 0
-1 -214 0
-3 -211 0
-4 -218 0
-5 -217 0
-3 -222 0
-4 -221 0
-9 -15 0
-10 -12 0
-10 -17 0
-7 -20 0
-9 -24 0
-10 -21 0
-6 -29 0
-7 -27 0
-7 -31 0
-8 -35 0
-6 -39 0
-10 -38 0
-6 -44 0
-9 -44 0
-7 -54 0
-6 -52 0
-7 -56 0
-10 -56 0
-10 -61 0
-8 -62 0
-9 -69 0
-6 -67 0
-6 -72 0
-6 -74 0
-7 -79 0
-8 -78 0
-10 -85 0
-7 -81 0
-8 -86 0
-10 -88 0
-8 -94 0
-8 -91 0
-6 -99 0
-8 -97 0
-9 -103 0
-8 -102 0
-9 -110 0
-7 -109 0
-10 -112 0
-7 -111 0
-7 -120 0
-6 -116 0
-9 -121 0
-9 -124 0
-9 -130 0
-9 -128 0
-8 -134 0
-6 -131 0
-8 -136 0
-10 -139 0
-8 -143 0
-8 -145 0
-8 -146 0
-7 -146 0
-10 -152 0
-10 -154 0
-8 -157 0
-10 -160 0
-8 -161 0
-6 -163 0
-8 -170 0
-9 -168 0
-7 -174 0
-10 -171 0
-8 -178 0
-6 -178 0
-10 -182 0
-7 -185 0
-10 -186 0
-7 -189 0
-10 -200 0
-9 -199 0
-9 -204 0
-7 -205 0
-7 -207 0
-10 -206 0
-9 -214 0
-9 -212 0
-10 -217 0
-10 -216 0
-9 -225 0
-10 -222 0
-11 -17 0
-14 -20 0
-11 -24 0
-13 -25 0
-13 -35 0
-14 -34 0
-15 -41 0
-15 -44 0
-15 -54 0
-11 -54 0
-12 -59 0
-14 -58 0
-13 -65 0
-12 -63 0
-15 -68 0
-14 -67 0
-12 -73 0
-14 -73 0
-11 -78 0
-13 -78 0
-15 -84 0
-15 -82 0
-14 -92 0
-15 -93 0
-12 -97 0
-14 -97 0
-15 -101 0
-11 -104 0
-15 -109 0
-14 -108 0
-13 -111 0
-12 -111 0
-14 -118 0
-15 -118 0
-12 -123 0
-12 -124 0
-11 -127 0
-14 -129 0
-14 -135 0
-12 -132 0
-15 -141 0
-14 -141 0
-15 -149 0
-15 -147 0
-12 -152 0
-13 -155 0
-13 -161 0
-13 -163 0
-13 -175 0
-12 -172 0
-15 -181 0
-14 -185 0
-14 -188 0
-12 -187 0
-11 -191 0
-12 -192 0
-13 -196 0
-14 -197 0
-11 -203 0
-15 -205 0
-14 -208 0
-14 -207 0
-14 -215 0
-11 -215 0
-11 -217 0
-13 -217 0
-13 -222 0
-11 -221 0
-20 -21 0
-20 -25 0
-17 -28 0
-20 -30 0
-17 -33 0
-19 -34 0
-19 -40 0
-16 -40 0
-16 -42 0
-18 -45 0
-16 -47 0
-20 -47 0
-19 -51 0
-20 -52 0
-16 -60 0
-18 -56 0
-18 -62 0
-17 -61 0
-17 -67 0
-18 -68 0
-16 -80 0
-18 -79 0
-20 -84 0
-20 -82 0
-18 -87 0
-18 -88 0
-19 -93 0
-18 -95 0
-16 -98 0
-19 -99 0
-16 -103 0
-18 -102 0
-19 -107 0
-16 -106 0
-18 -112 0
-16 -112 0
-19 -118 0
-20 -119 0
-18 -124 0
-16 -124 0
-18 -130 0
-19 -127 0
-17 -135 0
-18 -133 0
-17 -140 0
-20 -137 0
-19 -144 0
-16 -144 0
-18 -149 0
-17 -149 0
-18 -154 0
-16 -152 0
-17 -156 0
-18 -160 0
-18 -163 0
-20 -161 0
-17 -170 0
-20 -170 0
-17 -171 0
-16 -173 0
-16 -178 0
-18 -178 0
-20 -182 0
-17 -181 0
-16 -187 0
-19 -189 0
-19 -192 0
-20 -191 0
-19 -200 0
-17 -198 0
-18 -203 0
-19 -203 0
-17 -207 0
-18 -207 0
-19 -215 0
-18 -215 0
-20 -218 0
-16 -216 0
-21 -26 0
-24 -26 0
-22 -35 0
-25 -35 0
-21 -38 0
-25 -36 0
-21 -42 0
-23 -45 0
-23 -50 0
-23 -48 0
-25 -51 0
-24 -51 0
-25 -58 0
-23 -57 0
-25 -65 0
-24 -65 0
-21 -69 0
-24 -70 0
-24 -72 0
-22 -73 0
-23 -78 0
-24 -78 0
-24 -83 0
-21 -82 0
-25 -86 0
-24 -86 0
-25 -95 0
-25 -92 0
-23 -98 0
-24 -98 0
-25 -109 0
-25 -108 0
-21 -114 0
-24 -114 0
-24 -123 0
-24 -121 0
-23 -126 0
-22 -127 0
-21 -132 0
-22 -132 0
-22 -136 0
-21 -140 0
-22 -145 0
-24 -144 0
-23 -147 0
-23 -148 0
-22 -152 0
-23 -155 0
-23 -163 0
-23 -164 0
-25 -169 0
-21 -166 0
-22 -175 0
-23 -174 0
-22 -177 0
-24 -176 0
-24 -185 0
-22 -184 0
-21 -186 0
-23 -187 0
-21 -193 0
-22 -195 0
-23 -200 0
-25 -196 0
-24 -201 0
-22 -201 0
-23 -207 0
-21 -207 0
-21 -214 0
-24 -212 0
-25 -216 0
-25 -217 0
-23 -221 0
-25 -224 0
-28 -35 0
-30 -31 0
-27 -39 0
-28 -36 0
-30 -45 0
-26 -41 0
-29 -46 0
-27 -49 0
-27 -51 0
-28 -54 0
-26 -60 0
-28 -58 0
-26 -63 0
-30 -63 0
-29 -67 0
-29 -70 0
-30 -73 0
-26 -71 0
-30 -80 0
-29 -77 0
-30 -82 0
-26 -85 0
-27 -90 0
-30 -90 0
-27 -95 0
-28 -91 0
-28 -96 0
-26 -97 0
-28 -102 0
-30 -101 0
-26 -114 0
-26 -111 0
-28 -117 0
-27 -120 0
-28 -122 0
-27 -121 0
-27 -130 0
-28 -128 0
-28 -132 0
-29 -135 0
-28 -143 0
-30 -142 0
-27 -150 0
-26 -147 0
-29 -152 0
-26 -153 0
-26 -158 0
-30 -156 0
-29 -162 0
-30 -164 0
-30 -168 0
-30 -169 0
-26 -174 0
-30 -171 0
-26 -176 0
-30 -178 0
-28 -183 0
-30 -182 0
-26 -190 0
-28 -189 0
-28 -191 0
-26 -193 0
-29 -199 0
-29 -197 0
-30 -201 0
-30 -203 0
-30 -206 0
-28 -208 0
-26 -214 0
-30 -213 0
-29 -216 0
-26 -219 0
-27 -223 0
-27 -222 0
-31 -39 0
-35 -39 0
-32 -42 0
-34 -42 0
-35 -46 0
-31 -50 0
-31 -53 0
-32 -54 0
-33 -58 0
-32 -58 0
-32 -63 0
-35 -64 0
-32 -69 0
-33 -68 0
-31 -72 0
-33 -73 0
-35 -76 0
-34 -79 0
-35 -84 0
-35 -81 0
-35 -87 0
-32 -86 0
-35 -94 0
-33 -94 0
-32 -97 0
-34 -98 0
-32 -104 0
-35 -102 0
-35 -110 0
-33 -108 0
-32 -115 0
-34 -112 0
-33 -118 0
-35 -119 0
-33 -124 0
-34 -125 0
-32 -129 0
-32 -130 0
-35 -132 0
-31 -131 0
-34 -138 0
-34 -137 0
-34 -145 0
-34 -142 0
-34 -146 0
-31 -147 0
-33 -151 0
-34 -153 0
-34 -160 0
-35 -156 0
-33 -161 0
-34 -163 0
-32 -166 0
-35 -168 0
-31 -173 0
-32 -175 0
-31 -180 0
-35 -178 0
-31 -184 0
-34 -185 0
-31 -188 0
-32 -190 0
-34 -199 0
-31 -196 0
-35 -201 0
-33 -201 0
-31 -207 0
-33 -209 0
-31 -212 0
-35 -212 0
-35 -217 0
-33 -220 0
-34 -224 0
-35 -221 0
-37 -43 0
-38 -44 0
-40 -50 0
-37 -50 0
-40 -54 0
-37 -53 0
-38 -60 0
-39 -57 0
-40 -65 0
-39 -65 0
-37 -69 0
-40 -67 0
-39 -75 0
-36 -71 0
-37 -77 0
-39 -76 0
-40 -83 0
-37 -82 0
-38 -90 0
-38 -87 0
-37 -94 0
-38 -93 0
-36 -100 0
-36 -97 0
-40 -103 0
-36 -101 0
-37 -108 0
-39 -109 0
-39 -111 0
-36 -114 0
-39 -117 0
-36 -116 0
-37 -121 0
-36 -122 0
-40 -130 0
-40 -128 0
-39 -135 0
-38 -133 0
-39 -138 0
-38 -140 0
-40 -145 0
-38 -143 0
-39 -146 0
-38 -149 0
-39 -152 0
-39 -154 0
-37 -158 0
-40 -158 0
-38 -163 0
-40 -165 0
-36 -169 0
-36 -167 0
-38 -173 0
-36 -171 0
-38 -180 0
-38 -176 0
-40 -181 0
-38 -185 0
-38 -189 0
-38 -188 0
-38 -193 0
-39 -192 0
-39 -199 0
-36 -199 0
-40 -206 0
-36 -208 0
-37 -214 0
-40 -213 0
-39 -219 0
-38 -218 0
-38 -221 0
-40 -221 0
-44 -47 0
-43 -49 0
-43 -52 0
-44 -55 0
-43 -56 0
-44 -56 0
-45 -61 0
-41 -62 0
-41 -70 0
-42 -68 0
-41 -74 0
-44 -72 0
-41 -80 0
-41 -78 0
-43 -81 0
-41 -83 0
-44 -89 0
-42 -90 0
-43 -95 0
-42 -93 0
-43 -96 0
-44 -99 0
-44 -102 0
-45 -105 0
-45 -107 0
-42 -109 0
-45 -119 0
-41 -116 0
-44 -123 0
-44 -125 0
-42 -127 0
-45 -126 0
-44 -138 0
-42 -138 0
-44 -145 0
-43 -142 0
-45 -146 0
-41 -148 0
-42 -155 0
-44 -154 0
-41 -158 0
-44 -159 0
-43 -168 0
-45 -167 0
-44 -172 0
-43 -174 0
-44 -179 0
-45 -177 0
-44 -183 0
-45 -182 0
-43 -186 0
-43 -189 0
-42 -194 0
-44 -191 0
-41 -196 0
-41 -198 0
-44 -203 0
-44 -205 0
-41 -206 0
-43 -207 0
-42 -215 0
-45 -214 0
-42 -218 0
-42 -216 0
-45 -225 0
-44 -223 0
-50 -51 0
-50 -54 0
-46 -58 0
-46 -56 0
-48 -72 0
-47 -72 0
-46 -80 0
-50 -76 0
-48 -83 0
-46 -82 0
-47 -90 0
-46 -90 0
-47 -91 0
-47 -94 0
-50 -97 0
-48 -97 0
-48 -105 0
-49 -102 0
-47 -108 0
-49 -107 0
-50 -115 0
-49 -111 0
-48 -117 0
-47 -119 0
-49 -125 0
-48 -124 0
-49 -130 0
-49 -127 0
-46 -132 0
-48 -134 0
-48 -137 0
-47 -136 0
-49 -145 0
-46 -144 0
-46 -146 0
-46 -150 0
-48 -154 0
-50 -154 0
-49 -159 0
-50 -157 0
-47 -161 0
-49 -161 0
-46 -170 0
-49 -169 0
-47 -179 0
-48 -180 0
-48 -185 0
-47 -185 0
-48 -186 0
-49 -186 0
-47 -192 0
-48 -195 0
-50 -198 0
-49 -199 0
-46 -204 0
-50 -202 0
-47 -211 0
-49 -211 0
-48 -223 0
-49 -224 0
-53 -56 0
-54 -57 0
-52 -63 0
-51 -65 0
-54 -70 0
-52 -69 0
-51 -72 0
-52 -73 0
-53 -77 0
-54 -78 0
-55 -82 0
-52 -85 0
-54 -86 0
-51 -87 0
-54 -92 0
-52 -94 0
-53 -105 0
-51 -104 0
-51 -107 0
-53 -109 0
-52 -114 0
-54 -114 0
-55 -119 0
-53 -119 0
-52 -121 0
-53 -123 0
-52 -128 0
-51 -127 0
-53 -131 0
-53 -133 0
-54 -136 0
-55 -137 0
-52 -142 0
-55 -144 0
-55 -147 0
-55 -148 0
-51 -155 0
-52 -152 0
-53 -160 0
-53 -157 0
-55 -162 0
-52 -164 0
-52 -169 0
-51 -166 0
-53 -171 0
-55 -171 0
-51 -176 0
-54 -180 0
-55 -181 0
-52 -182 0
-51 -194 0
-54 -191 0
-53 -202 0
-53 -201 0
-54 -209 0
-55 -206 0
-55 -213 0
-51 -211 0
-53 -218 0
-54 -220 0
-55 -221 0
-53 -222 0
-57 -65 0
-58 -64 0
-58 -67 0
-57 -69 0
-57 -71 0
-60 -73 0
-60 -80 0
-58 -77 0
-60 -88 0
-56 -90 0
-59 -102 0
-56 -105 0
-58 -107 0
-60 -109 0
-58 -115 0
-60 -113 0
-59 -119 0
-60 -116 0
-57 -124 0
-60 -123 0
-60 -128 0
-57 -128 0
-59 -135 0
-58 -131 0
-59 -136 0
-59 -140 0
-59 -145 0
-56 -145 0
-57 -147 0
-59 -150 0
-58 -152 0
-57 -154 0
-58 -162 0
-56 -163 0
-59 -167 0
-58 -168 0
-56 -171 0
-59 -175 0
-58 -176 0
-58 -178 0
-56 -182 0
-57 -185 0
-56 -189 0
-57 -189 0
-58 -191 0
-57 -194 0
-60 -198 0
-58 -196 0
-58 -203 0
-60 -202 0
-60 -206 0
-56 -207 0
-59 -215 0
-58 -215 0
-59 -218 0
-58 -218 0
-58 -221 0
-56 -222 0
-64 -67 0
-65 -66 0
-63 -74 0
-61 -71 0
-64 -79 0
-62 -78 0
-64 -87 0
-62 -89 0
-64 -92 0
-65 -92 0
-64 -104 0
-62 -101 0
-63 -106 0
-64 -109 0
-65 -111 0
-65 -112 0
-64 -117 0
-63 -120 0
-61 -121 0
-63 -124 0
-61 -130 0
-65 -127 0
-65 -134 0
-63 -133 0
-63 -136 0
-61 -139 0
-64 -144 0
-64 -141 0
-65 -146 0
-61 -147 0
-61 -158 0
-65 -158 0
-63 -165 0
-62 -164 0
-62 -166 0
-61 -168 0
-61 -172 0
-64 -173 0
-61 -176 0
-65 -180 0
-61 -185 0
-62 -185 0
-61 -194 0
-64 -195 0
-65 -207 0
-61 -210 0
-61 -214 0
-65 -214 0
-63 -219 0
-64 -220 0
-61 -225 0
-64 -223 0
-70 -79 0
-70 -78 0
-66 -85 0
-69 -82 0
-67 -90 0
-69 -87 0
-68 -94 0
-67 -95 0
-68 -96 0
-69 -99 0
-67 -101 0
-67 -103 0
-68 -109 0
-67 -110 0
-70 -115 0
-67 -111 0
-68 -119 0
-66 -119 0
-67 -121 0
-67 -125 0
-68 -126 0
-66 -130 0
-66 -131 0
-70 -131 0
-70 -139 0
-68 -138 0
-69 -141 0
-66 -143 0
-66 -148 0
-70 -147 0
-69 -154 0
-66 -154 0
-68 -163 0
-67 -165 0
-70 -169 0
-68 -170 0
-69 -173 0
-67 -172 0
-67 -180 0
-68 -178 0
-70 -185 0
-70 -184 0
-66 -187 0
-67 -186 0
-68 -192 0
-66 -193 0
-67 -197 0
-66 -200 0
-66 -208 0
-67 -209 0
-66 -215 0
-70 -211 0
-69 -224 0
-70 -225 0
-72 -79 0
-74 -78 0
-71 -84 0
-75 -83 0
-72 -90 0
-75 -88 0
-73 -91 0
-73 -92 0
-73 -97 0
-73 -96 0
-71 -101 0
-71 -104 0
-71 -107 0
-71 -106 0
-72 -111 0
-73 -112 0
-71 -120 0
-71 -118 0
-71 -123 0
-71 -125 0
-72 -130 0
-74 -130 0
-75 -133 0
-73 -134 0
-73 -137 0
-71 -136 0
-73 -145 0
-74 -144 0
-73 -148 0
-74 -149 0
-73 -151 0
-74 -152 0
-75 -159 0
-75 -160 0
-71 -161 0
-72 -163 0
-75 -168 0
-74 -168 0
-73 -174 0
-73 -175 0
-74 -176 0
-71 -179 0
-71 -185 0
-72 -183 0
-71 -186 0
-73 -187 0
-72 -192 0
-73 -195 0
-75 -199 0
-73 -198 0
-74 -202 0
-71 -201 0
-72 -206 0
-74 -209 0
-75 -214 0
-74 -213 0
-73 -220 0
-75 -219 0
-71 -224 0
-74 -224 0
-80 -81 0
-76 -81 0
-77 -86 0
-78 -88 0
-77 -92 0
-77 -94 0
-80 -96 0
-78 -100 0
-77 -103 0
-80 -103 0
-77 -110 0
-77 -106 0
-80 -115 0
-80 -111 0
-80 -117 0
-80 -119 0
-79 -124 0
-76 -121 0
-79 -128 0
-76 -128 0
-76 -134 0
-76 -135 0
-79 -139 0
-80 -136 0
-80 -145 0
-78 -145 0
-80 -146 0
-77 -147 0
-79 -154 0
-78 -155 0
-76 -157 0
-79 -159 0
-79 -164 0
-76 -161 0
-80 -170 0
-76 -167 0
-76 -171 0
-77 -174 0
-77 -182 0
-78 -182 0
-77 -196 0
-79 -197 0
-80 -210 0
-78 -207 0
-76 -211 0
-78 -213 0
-78 -218 0
-80 -218 0
-83 -88 0
-81 -89 0
-85 -95 0
-81 -95 0
-82 -99 0
-85 -98 0
-85 -101 0
-81 -103 0
-84 -107 0
-81 -108 0
-82 -111 0
-84 -115 0
-83 -119 0
-81 -120 0
-84 -121 0
-82 -125 0
-85 -128 0
-82 -129 0
-84 -133 0
-84 -134 0
-82 -139 0
-84 -137 0
-84 -145 0
-85 -145 0
-81 -149 0
-85 -149 0
-85 -155 0
-81 -154 0
-85 -159 0
-83 -159 0
-83 -162 0
-81 -165 0
-82 -167 0
-84 -170 0
-81 -175 0
-81 -171 0
-82 -178 0
-84 -179 0
-85 -181 0
-85 -183 0
-81 -186 0
-84 -188 0
-83 -195 0
-83 -191 0
-85 -199 0
-84 -199 0
-83 -202 0
-83 -204 0
-82 -206 0
-82 -209 0
-83 -214 0
-84 -213 0
-84 -219 0
-85 -216 0
-85 -225 0
-81 -221 0
-87 -92 0
-89 -95 0
-90 -96 0
-88 -99 0
-89 -101 0
-90 -103 0
-90 -109 0
-88 -108 0
-89 -111 0
-90 -112 0
-88 -116 0
-87 -120 0
-89 -122 0
-88 -125 0
-89 -128 0
-86 -128 0
-86 -132 0
-86 -134 0
-89 -137 0
-90 -138 0
-89 -141 0
-87 -141 0
-86 -147 0
-88 -150 0
-90 -160 0
-90 -156 0
-87 -165 0
-90 -163 0
-87 -172 0
-87 -171 0
-87 -176 0
-88 -177 0
-89 -182 0
-88 -183 0
-90 -186 0
-87 -188 0
-86 -195 0
-89 -194 0
-88 -198 0
-90 -200 0
-88 -201 0
-90 -202 0
-89 -210 0
-89 -208 0
-89 -214 0
-88 -211 0
-86 -219 0
-86 -217 0
-89 -221 0
-90 -224 0
-94 -100 0
-91 -99 0
-91 -104 0
-95 -103 0
-94 -109 0
-93 -107 0
-93 -115 0
-94 -115 0
-94 -117 0
-91 -119 0
-91 -125 0
-92 -125 0
-94 -127 0
-93 -128 0
-92 -131 0
-95 -132 0
-94 -137 0
-95 -137 0
-92 -142 0
-93 -145 0
-93 -149 0
-92 -148 0
-93 -152 0
-92 -152 0
-91 -158 0
-95 -156 0
-91 -162 0
-94 -163 0
-95 -167 0
-91 -166 0
-94 -174 0
-92 -174 0
-94 -179 0
-93 -178 0
-94 -184 0
-91 -183 0
-94 -188 0
-95 -189 0
-95 -194 0
-94 -195 0
-93 -197 0
-92 -199 0
-95 -205 0
-91 -201 0
-91 -214 0
-95 -215 0
-92 -216 0
-95 -219 0
-95 -224 0
-94 -221 0
-99 -104 0
-100 -104 0
-99 -109 0
-100 -109 0
-96 -111 0
-100 -112 0
-99 -119 0
-99 -120 0
-98 -123 0
-98 -122 0
-96 -129 0
-100 -130 0
-99 -137 0
-100 -136 0
-99 -143 0
-99 -141 0
-97 -150 0
-99 -149 0
-96 -152 0
-99 -153 0
-100 -159 0
-97 -156 0
-99 -161 0
-96 -161 0
-96 -170 0
-99 -170 0
-99 -171 0
-99 -173 0
-97 -177 0
-98 -178 0
-97 -181 0
-99 -182 0
-98 -190 0
-96 -186 0
-97 -193 0
-98 -195 0
-100 -198 0
-99 -200 0
-97 -205 0
-98 -201 0
-100 -209 0
-97 -206 0
-97 -214 0
-98 -214 0
-98 -223 0
-97 -223 0
-104 -108 0
-101 -108 0
-105 -112 0
-102 -114 0
-101 -120 0
-103 -118 0
-104 -125 0
-103 -125 0
-105 -130 0
-102 -130 0
-105 -133 0
-104 -134 0
-101 -145 0
-103 -144 0
-105 -147 0
-104 -150 0
-105 -155 0
-101 -153 0
-101 -159 0
-105 -159 0
-102 -163 0
-104 -164 0
-104 -167 0
-104 -169 0
-103 -177 0
-104 -180 0
-104 -184 0
-101 -184 0
-101 -187 0
-105 -189 0
-102 -192 0
-102 -195 0
-104 -197 0
-101 -197 0
-103 -205 0
-105 -205 0
-102 -209 0
-102 -206 0
-102 -214 0
-104 -213 0
-105 -220 0
-105 -219 0
-104 -221 0
-105 -223 0
-110 -115 0
-107 -114 0
-106 -119 0
-109 -116 0
-110 -124 0
-110 -121 0
-109 -127 0
-110 -129 0
-106 -135 0
-107 -134 0
-108 -136 0
-109 -138 0
-110 -142 0
-109 -141 0
-109 -146 0
-108 -149 0
-107 -152 0
-110 -153 0
-108 -160 0
-106 -158 0
-107 -169 0
-110 -166 0
-108 -175 0
-109 -175 0
-110 -177 0
-107 -179 0
-106 -184 0
-110 -185 0
-106 -194 0
-107 -191 0
-110 -198 0
-108 -199 0
-110 -215 0
-107 -213 0
-110 -218 0
-108 -217 0
-114 -118 0
-114 -117 0
-114 -128 0
-115 -128 0
-115 -135 0
-111 -131 0
-113 -138 0
-114 -138 0
-113 -145 0
-112 -144 0
-112 -148 0
-114 -150 0
-112 -154 0
-113 -154 0
-111 -157 0
-114 -156 0
-111 -164 0
-115 -161 0
-112 -169 0
-114 -168 0
-114 -172 0
-113 -174 0
-111 -185 0
-113 -181 0
-115 -187 0
-115 -189 0
-113 -192 0
-115 -194 0
-111 -199 0
-111 -200 0
-115 -204 0
-111 -203 0
-111 -207 0
-112 -209 0
-114 -211 0
-111 -213 0
-111 -217 0
-113 -218 0
-111 -225 0
-113 -222 0
-120 -126 0
-120 -130 0
-116 -131 0
-118 -131 0
-116 -140 0
-117 -137 0
-120 -143 0
-117 -142 0
-118 -150 0
-119 -148 0
-118 -151 0
-119 -155 0
-119 -159 0
-116 -158 0
-120 -163 0
-117 -165 0
-116 -174 0
-116 -175 0
-118 -180 0
-118 -176 0
-117 -183 0
-116 -181 0
-118 -187 0
-119 -190 0
-116 -195 0
-116 -192 0
-119 -198 0
-120 -200 0
-119 -202 0
-120 -201 0
-118 -210 0
-117 -208 0
-120 -215 0
-120 -211 0
-119 -220 0
-119 -219 0
-118 -222 0
-119 -222 0
-124 -128 0
-123 -128 0
-121 -145 0
-121 -144 0
-121 -150 0
-123 -147 0
-123 -155 0
-124 -155 0
-125 -157 0
-124 -160 0
-125 -164 0
-122 -161 0
-123 -166 0
-124 -169 0
-121 -172 0
-122 -171 0
-122 -176 0
-121 -178 0
-124 -190 0
-125 -190 0
-123 -193 0
-124 -193 0
-123 -204 0
-124 -201 0
-124 -211 0
-124 -213 0
-121 -216 0
-123 -216 0
-124 -225 0
-124 -223 0
-128 -133 0
-127 -134 0
-129 -136 0
-126 -138 0
-130 -148 0
-126 -150 0
-127 -155 0
-127 -151 0
-127 -158 0
-128 -159 0
-130 -161 0
-127 -163 0
-126 -167 0
-129 -167 0
-126 -185 0
-129 -184 0
-128 -190 0
-130 -187 0
-129 -194 0
-127 -193 0
-128 -200 0
-126 -199 0
-129 -203 0
-129 -201 0
-126 -208 0
-128 -206 0
-127 -212 0
-128 -214 0
-128 -218 0
-128 -219 0
-129 -222 0
-126 -224 0
-131 -140 0
-134 -136 0
-131 -145 0
-135 -145 0
-133 -148 0
-134 -147 0
-132 -153 0
-131 -152 0
-135 -160 0
-134 -156 0
-133 -164 0
-131 -161 0
-132 -170 0
-134 -169 0
-131 -178 0
-134 -178 0
-133 -185 0
-131 -185 0
-135 -190 0
-132 -188 0
-132 -191 0
-132 -194 0
-135 -196 0
-133 -200 0
-134 -201 0
-131 -202 0
-132 -208 0
-133 -209 0
-132 -212 0
-134 -211 0
-133 -220 0
-131 -219 0
-133 -223 0
-134 -225 0
-139 -144 0
-136 -143 0
-138 -150 0
-140 -148 0
-139 -152 0
-136 -153 0
-137 -160 0
-139 -157 0
-138 -163 0
-136 -161 0
-138 -169 0
-138 -167 0
-137 -172 0
-140 -174 0
-138 -180 0
-139 -179 0
-136 -187 0
-139 -190 0
-136 -194 0
-140 -193 0
-138 -200 0
-136 -196 0
-136 -203 0
-138 -204 0
-139 -206 0
-138 -208 0
-138 -214 0
-137 -214 0
-139 -219 0
-140 -220 0
-139 -222 0
-137 -224 0
-144 -146 0
-144 -149 0
-145 -159 0
-144 -156 0
-144 -165 0
-145 -164 0
-145 -167 0
-143 -169 0
-142 -171 0
-141 -172 0
-144 -179 0
-144 -178 0
-145 -184 0
-144 -184 0
-142 -187 0
-142 -190 0
-141 -192 0
-143 -191 0
-141 -200 0
-142 -200 0
-142 -205 0
-141 -202 0
-145 -207 0
-144 -208 0
-143 -211 0
-143 -213 0
-145 -219 0
-145 -220 0
-145 -223 0
-141 -222 0
-149 -156 0
-148 -159 0
-150 -163 0
-147 -165 0
-146 -169 0
-150 -170 0
-148 -172 0
-148 -173 0
-146 -179 0
-150 -177 0
-149 -185 0
-148 -183 0
-149 -187 0
-148 -189 0
-147 -198 0
-148 -198 0
-150 -207 0
-146 -208 0
-148 -215 0
-148 -212 0
-148 -220 0
-150 -219 0
-146 -225 0
-149 -224 0
-152 -157 0
-154 -156 0
-155 -164 0
-153 -165 0
-153 -175 0
-154 -173 0
-152 -176 0
-154 -177 0
-151 -185 0
-152 -185 0
-153 -188 0
-151 -190 0
-155 -192 0
-152 -195 0
-151 -198 0
-152 -197 0
-151 -207 0
-155 -210 0
-154 -213 0
-153 -211 0
-151 -217 0
-151 -219 0
-154 -225 0
-151 -222 0
-158 -163 0
-158 -165 0
-157 -180 0
-160 -180 0
-156 -181 0
-157 -185 0
-158 -186 0
-157 -188 0
-158 -195 0
-160 -194 0
-156 -198 0
-159 -199 0
-157 -203 0
-157 -202 0
-158 -208 0
-156 -206 0
-156 -211 0
-159 -211 0
-159 -217 0
-156 -220 0
-158 -223 0
-157 -225 0
-163 -168 0
-164 -169 0
-162 -175 0
-165 -173 0
-161 -182 0
-163 -185 0
-162 -193 0
-161 -194 0
-161 -198 0
-165 -196 0
-161 -204 0
-165 -203 0
-165 -210 0
-161 -209 0
-161 -214 0
-163 -213 0
-163 -220 0
-164 -217 0
-165 -223 0
-162 -221 0
-166 -171 0
-168 -174 0
-168 -180 0
-170 -177 0
-168 -181 0
-167 -184 0
-169 -186 0
-167 -188 0
-170 -191 0
-170 -194 0
-167 -197 0
-169 -199 0
-168 -204 0
-167 -204 0
-166 -206 0
-169 -206 0
-166 -213 0
-169 -211 0
-170 -218 0
-169 -220 0
-167 -222 0
-170 -221 0
-175 -176 0
-173 -176 0
-172 -183 0
-173 -185 0
-174 -193 0
-175 -195 0
-173 -198 0
-173 -199 0
-174 -203 0
-171 -204 0
-173 -208 0
-173 -207 0
-171 -212 0
-172 -215 0
-172 -222 0
-175 -221 0
-176 -185 0
-177 -183 0
-176 -188 0
-177 -187 0
-176 -194 0
-177 -192 0
-179 -198 0
-180 -198 0
-179 -208 0
-180 -210 0
-180 -214 0
-178 -212 0
-180 -218 0
-177 -217 0
-178 -224 0
-177 -223 0
-184 -190 0
-183 -190 0
-181 -191 0
-185 -191 0
-182 -197 0
-184 -197 0
-185 -207 0
-181 -208 0
-181 -213 0
-182 -212 0
-185 -220 0
-183 -216 0
-183 -223 0
-185 -224 0
-187 -193 0
-187 -192 0
-187 -199 0
-190 -197 0
-187 -210 0
-190 -206 0
-190 -220 0
-189 -219 0
-187 -224 0
-189 -224 0
-195 -200 0
-191 -200 0
-192 -203 0
-195 -205 0
-192 -208 0
-193 -207 0
-193 -215 0
-191 -214 0
-192 -216 0
-192 -219 0
-194 -221 0
-195 -225 0
-198 -205 0
-197 -202 0
-199 -212 0
-196 -215 0
-198 -221 0
-199 -225 0
-201 -212 0
-201 -214 0
-204 -219 0
-204 -220 0
-203 -222 0
-201 -224 0
-210 -211 0
-209 -214 0
-207 -218 0
-208 -216 0
-208 -225 0
-206 -224 0
-211 -217 0
-213 -219 0
-213 -221 0
-213 -222 0
-219 -225 0
-220 -224 0
